(set-option :auto-config false)
(set-option :model true)

(set-option :smt.mbqi false)

(define-sort Str () Int)
(declare-fun strLen (Str) Int)
(declare-fun subString (Str Int Int) Str)
(declare-fun concatString (Str Str) Str)
(define-sort Elt () Int)
(define-sort LSet () (Array Elt Bool))
(define-fun smt_set_emp () LSet ((as const LSet) false))
(define-fun smt_set_sng ((x Elt)) LSet (store ((as const LSet) false) x true))
(define-fun smt_set_mem ((x Elt) (s LSet)) Bool (select s x))
(define-fun smt_set_add ((s LSet) (x Elt)) LSet (store s x true))
(define-fun smt_set_cup ((s1 LSet) (s2 LSet)) LSet ((_ map or) s1 s2))
(define-fun smt_set_cap ((s1 LSet) (s2 LSet)) LSet ((_ map and) s1 s2))
(define-fun smt_set_com ((s LSet)) LSet ((_ map not) s))
(define-fun smt_set_dif ((s1 LSet) (s2 LSet)) LSet (smt_set_cap s1 (smt_set_com s2)))
(define-fun smt_set_sub ((s1 LSet) (s2 LSet)) Bool (= smt_set_emp (smt_set_dif s1 s2)))
(define-sort Map () (Array Elt Elt))
(define-fun smt_map_sel ((m Map) (k Elt)) Elt (select m k))
(define-fun smt_map_sto ((m Map) (k Elt) (v Elt)) Map (store m k v))
(define-fun smt_map_cup ((m1 Map) (m2 Map)) Map ((_ map (+ (Elt Elt) Elt)) m1 m2))
(define-fun smt_map_prj ((s LSet) (m Map)) Map ((_ map (ite (Bool Elt Elt) Elt)) s m ((as const (Array Elt Elt)) 0)))
(define-fun smt_map_to_set ((m Map)) LSet ((_ map (> (Elt Elt) Bool)) m ((as const (Array Elt Elt)) 0)))
(define-fun smt_map_max ((m1 Map) (m2 Map)) Map (lambda ((i Int)) (ite (> (select m1 i) (select m2 i)) (select m1 i) (select m2 i))))
(define-fun smt_map_min ((m1 Map) (m2 Map)) Map (lambda ((i Int)) (ite (< (select m1 i) (select m2 i)) (select m1 i) (select m2 i))))
(define-fun smt_map_shift ((n Int) (m Map)) Map (lambda ((i Int)) (select m (- i n))))
(define-fun smt_map_def ((v Elt)) Map ((as const (Map)) v))
(define-fun bool_to_int ((b Bool)) Int (ite b 1 0))
(define-fun Z3_OP_MUL ((x Int) (y Int)) Int (* x y))
(define-fun Z3_OP_DIV ((x Int) (y Int)) Int (div x y))
(declare-fun papp7 () Int)
(declare-fun lq_tmp$36$x$35$$35$3531 () Int)
(declare-fun fix$36$$36$d$40$$37$$44$$37$$41$_a59Ed () Int)
(declare-fun lq_rnm$36$x$35$$35$a59Ej$35$$35$185 () Int)
(declare-fun Data.ByteString.Internal.$36$WPS () Int)
(declare-fun GHC.Types.$91$$93$ () Int)
(declare-fun InterfaceAdapters.Weather.Weather.getWeather () Int)
(declare-fun GHC.Types.Word32Rep () Int)
(declare-fun lq_anf$36$$35$$35$7205759403794022464$35$$35$d59Go () Int)
(declare-fun Data.Text.Encoding.Error.DecodeError () Int)
(declare-fun ds_d59EV () Int)
(declare-fun lq_anf$36$$35$$35$7205759403794022476$35$$35$d59GA () Int)
(declare-fun GHC.Int.I64$35$ () Int)
(declare-fun GHC.Types.C$35$ () Int)
(declare-fun GHC.Types.$58$ () Int)
(declare-fun tail () Int)
(declare-fun GHC.IO.Handle.Types.$36$WFileHandle () Int)
(declare-fun Data.ByteString.Lazy.Internal.Chunk () Int)
(declare-fun Data.Aeson.Types.ToJSON.C$58$ToJSON () Int)
(declare-fun Polysemy.Embed.Type.$36$WEmbed () Int)
(declare-fun GHC.Types.Word8Rep () Int)
(declare-fun lq_tmp$36$x$35$$35$3883 () Int)
(declare-fun lq_tmp$36$x$35$$35$3740 () Int)
(declare-fun GHC.IO.Handle.Types.DuplexHandle () Int)
(declare-fun GHC.IO.Handle.Types.FileHandle () Int)
(declare-fun UseCases.AgricultureUseCase.C$58$UserInput () Int)
(declare-fun Data.Aeson.Key.Key () Int)
(declare-fun UseCases.WWI.$36$WSendBackMsg () Int)
(declare-fun GHC.Word.W8$35$ () Int)
(declare-fun GHC.Tuple.$40$$44$$41$ () Int)
(declare-fun Data.Aeson.Types.Internal.$36$WBool () Int)
(declare-fun Data.Aeson.Types.Internal.Object () Int)
(declare-fun lq_tmp$36$x$35$$35$3863 () Int)
(declare-fun papp5 () Int)
(declare-fun lq_tmp$36$x$35$$35$3533 () Int)
(declare-fun GHC.Types.Word16Rep () Int)
(declare-fun GHC.Maybe.Just () Int)
(declare-fun x_Tuple22 () Int)
(declare-fun Data.Aeson.Types.Internal.$36$WNumber () Int)
(declare-fun GHC.Generics.C$58$Generic () Int)
(declare-fun lq_tmp$36$x$35$$35$21 () Int)
(declare-fun GHC.IO.Exception.IOError () Int)
(declare-fun GHC.Types.Module () Int)
(declare-fun GHC.Stack.Types.FreezeCallStack () Int)
(declare-fun GHC.Types.TrNameD () Int)
(declare-fun GHC.Types.Word64Rep () Int)
(declare-fun GHC.Types.UnliftedRep () Int)
(declare-fun lq_tmp$36$x$35$$35$4366 () Int)
(declare-fun Data.Aeson.Types.Internal.Array () Int)
(declare-fun lq_tmp$36$x$35$$35$3510 () Int)
(declare-fun lq_anf$36$$35$$35$7205759403794022471$35$$35$d59Gv () Int)
(declare-fun GHC.Types.IntRep () Int)
(declare-fun lq_tmp$36$x$35$$35$3881 () Int)
(declare-fun Control.Exception.Base.patError () Int)
(declare-fun lq_tmp$36$x$35$$35$3742 () Int)
(declare-fun GHC.Types.DoubleRep () Int)
(declare-fun Polysemy.Internal.Combinators.interpret () Int)
(declare-fun Data.Text.Internal.Text () Int)
(declare-fun Data.ByteString.Internal.PS () Int)
(declare-fun GHC.Types.Int8Rep () Int)
(declare-fun lq_anf$36$$35$$35$7205759403794022472$35$$35$d59Gw () Int)
(declare-fun GHC.Real.$36$W$58$$37$ () Int)
(declare-fun UseCases.WWI.UserAsk () Int)
(declare-fun lq_tmp$36$x$35$$35$3865 () Int)
(declare-fun GHC.Types.WordRep () Int)
(declare-fun papp3 () Int)
(declare-fun Polysemy.Embed.Type.Embed () Int)
(declare-fun lq_tmp$36$x$35$$35$3535 () Int)
(declare-fun lq_tmp$36$x$35$$35$3737 () Int)
(declare-fun Data.Aeson.Types.Internal.Bool () Int)
(declare-fun lq_tmp$36$x$35$$35$18 () Int)
(declare-fun Data.Aeson.Types.Internal.String () Int)
(declare-fun GHC.Enum.C$58$Bounded () Int)
(declare-fun lq_anf$36$$35$$35$7205759403794022478$35$$35$d59GC () Int)
(declare-fun GHC.Types.True () Int)
(declare-fun lq_tmp$36$x$35$$35$4453 () Int)
(declare-fun GHC.Stack.Types.EmptyCallStack () Int)
(declare-fun x_Tuple33 () Int)
(declare-fun lq_anf$36$$35$$35$7205759403794022461$35$$35$d59Gl () Int)
(declare-fun Data.Either.Right () Int)
(declare-fun Data.Aeson.Types.FromJSON.C$58$FromJSON () Int)
(declare-fun lq_tmp$36$x$35$$35$3516 () Int)
(declare-fun lit$36$src$47$InterfaceAdapters$47$Weather$47$WWIWebPirate.hs$58$44$58$30$45$84$124$lambda () Str)
(declare-fun GHC.Show.C$58$Show () Int)
(declare-fun cast_as () Int)
(declare-fun Data.Text.Internal.$36$WText () Int)
(declare-fun lq_tmp$36$x$35$$35$17 () Int)
(declare-fun Data.ByteString.Lazy.Internal.$36$WChunk () Int)
(declare-fun cast_as_int () Int)
(declare-fun Data.Aeson.Types.Internal.$36$WObject () Int)
(declare-fun lq_tmp$36$x$35$$35$3949 () Int)
(declare-fun lq_tmp$36$x$35$$35$3950 () Int)
(declare-fun lq_tmp$36$x$35$$35$3738 () Int)
(declare-fun UseCases.WWI.SendBackMsg () Int)
(declare-fun GHC.Types.Int64Rep () Int)
(declare-fun GHC.Types.LT () Int)
(declare-fun GHC.Tuple.$40$$44$$44$$41$ () Int)
(declare-fun papp1 () Int)
(declare-fun GHC.Classes.$36$p2$40$$37$$44$$37$$41$ () Int)
(declare-fun req$35$$35$a59Dv () Int)
(declare-fun GHC.Types.AddrRep () Int)
(declare-fun papp6 () Int)
(declare-fun lq_tmp$36$x$35$$35$3530 () Int)
(declare-fun GHC.Classes.C$58$IP () Int)
(declare-fun Data.Either.Left () Int)
(declare-fun InterfaceAdapters.Weather.WWIWebPirate.interfaceWebPirate () Int)
(declare-fun GHC.Classes.C$58$Eq () Int)
(declare-fun Polysemy.Internal.embed () Int)
(declare-fun liquid_internal_this () Int)
(declare-fun lq_tmp$36$x$35$$35$20 () Int)
(declare-fun fldList () Int)
(declare-fun GHC.Tuple.$40$$41$ () Int)
(declare-fun GHC.Types.I$35$ () Int)
(declare-fun lq_anf$36$$35$$35$7205759403794022474$35$$35$d59Gy () Int)
(declare-fun Data.ByteString.Lazy.Internal.Empty () Int)
(declare-fun x_Tuple31 () Int)
(declare-fun ds_d59EW () Int)
(declare-fun GHC.Num.Integer.IS () Int)
(declare-fun lq_anf$36$$35$$35$7205759403794022466$35$$35$d59Gq () Int)
(declare-fun GHC.Types.FloatRep () Int)
(declare-fun Data.Aeson.Types.Internal.$36$WArray () Int)
(declare-fun Data.Aeson.Types.Internal.Null () Int)
(declare-fun Web.Telegram.API.Bot.Data.Update () Int)
(declare-fun lq_anf$36$$35$$35$7205759403794022473$35$$35$d59Gx () Int)
(declare-fun GHC.Types.LiftedRep () Int)
(declare-fun GHC.Types.EQ () Int)
(declare-fun GHC.Real.$58$$37$ () Int)
(declare-fun GHC.Types.MkCoercible () Int)
(declare-fun GHC.Types.VecRep () Int)
(declare-fun lq_tmp$36$x$35$$35$3882 () Int)
(declare-fun lq_tmp$36$x$35$$35$3741 () Int)
(declare-fun lq_tmp$36$x$35$$35$4432 () Int)
(declare-fun lit$36$MaximumCity$45$0.9.9$45$IUoVqdUkwWmEGL6yhjWbHS () Str)
(declare-fun InterfaceAdapters.Weather.WWIWebPirate.runWWIWebPirate () Int)
(declare-fun UseCases.WWI.GetWeatherTown () Int)
(declare-fun lq_anf$36$$35$$35$7205759403794022465$35$$35$d59Gp () Int)
(declare-fun lq_tmp$36$x$35$$35$3744 () Int)
(declare-fun InterfaceAdapters.Preferences.Preferences () Int)
(declare-fun GHC.Types.Int16Rep () Int)
(declare-fun papp4 () Int)
(declare-fun lq_tmp$36$x$35$$35$3532 () Int)
(declare-fun GHC.Types.eq_sel () Int)
(declare-fun Data.Aeson.Types.Internal.$36$WString () Int)
(declare-fun GHC.Stack.Types.PushCallStack () Int)
(declare-fun GHC.Types.Eq$35$ () Int)
(declare-fun lq_tmp$36$x$35$$35$22 () Int)
(declare-fun lq_tmp$36$x$35$$35$19 () Int)
(declare-fun GHC.Types.SumRep () Int)
(declare-fun x_Tuple21 () Int)
(declare-fun Data.Text.Encoding.Error.EncodeError () Int)
(declare-fun head () Int)
(declare-fun co_a59Eo () Int)
(declare-fun lit$36$InterfaceAdapters.Weather.WWIWebPirate () Str)
(declare-fun GHC.Maybe.Nothing () Int)
(declare-fun lq_tmp$36$x$35$$35$3517 () Int)
(declare-fun UseCases.WWI.$36$WGetWeatherTown () Int)
(declare-fun GHC.Classes.C$58$$40$$37$$44$$37$$41$ () Int)
(declare-fun GHC.Num.Integer.IP () Int)
(declare-fun x_Tuple32 () Int)
(declare-fun Data.Aeson.Types.Internal.Number () Int)
(declare-fun x$35$$35$a59Ej () Int)
(declare-fun GHC.Types.TupleRep () Int)
(declare-fun lq_tmp$36$x$35$$35$3743 () Int)
(declare-fun lq_anf$36$$35$$35$7205759403794022462$35$$35$d59Gm () Int)
(declare-fun GHC.Types.TrNameS () Int)
(declare-fun GHC.Num.Integer.IN () Int)
(declare-fun lq_tmp$36$x$35$$35$3951 () Int)
(declare-fun lq_tmp$36$x$35$$35$3739 () Int)
(declare-fun GHC.Types.False () Int)
(declare-fun lq_tmp$36$x$35$$35$3864 () Int)
(declare-fun papp2 () Int)
(declare-fun lq_anf$36$$35$$35$7205759403794022463$35$$35$d59Gn () Int)
(declare-fun lq_tmp$36$x$35$$35$3534 () Int)
(declare-fun Polysemy.Internal.Union.C$58$Find () Int)
(declare-fun lq_tmp$36$x$35$$35$3486 () Int)
(declare-fun GHC.IO.Handle.Types.$36$WDuplexHandle () Int)
(declare-fun GHC.Types.GT () Int)
(declare-fun GHC.Types.Int32Rep () Int)
(declare-fun apply$35$$35$13 (Int (_ BitVec 32)) Bool)
(declare-fun apply$35$$35$1 (Int Int) Bool)
(declare-fun apply$35$$35$3 (Int Int) (_ BitVec 32))
(declare-fun apply$35$$35$15 (Int (_ BitVec 32)) (_ BitVec 32))
(declare-fun apply$35$$35$14 (Int (_ BitVec 32)) Str)
(declare-fun apply$35$$35$9 (Int Str) Bool)
(declare-fun apply$35$$35$4 (Int Bool) Int)
(declare-fun apply$35$$35$10 (Int Str) Str)
(declare-fun apply$35$$35$11 (Int Str) (_ BitVec 32))
(declare-fun apply$35$$35$12 (Int (_ BitVec 32)) Int)
(declare-fun apply$35$$35$8 (Int Str) Int)
(declare-fun apply$35$$35$0 (Int Int) Int)
(declare-fun apply$35$$35$6 (Int Bool) Str)
(declare-fun apply$35$$35$7 (Int Bool) (_ BitVec 32))
(declare-fun apply$35$$35$2 (Int Int) Str)
(declare-fun apply$35$$35$5 (Int Bool) Bool)
(declare-fun coerce$35$$35$13 ((_ BitVec 32)) Bool)
(declare-fun coerce$35$$35$1 (Int) Bool)
(declare-fun coerce$35$$35$3 (Int) (_ BitVec 32))
(declare-fun coerce$35$$35$15 ((_ BitVec 32)) (_ BitVec 32))
(declare-fun coerce$35$$35$14 ((_ BitVec 32)) Str)
(declare-fun coerce$35$$35$9 (Str) Bool)
(declare-fun coerce$35$$35$4 (Bool) Int)
(declare-fun coerce$35$$35$10 (Str) Str)
(declare-fun coerce$35$$35$11 (Str) (_ BitVec 32))
(declare-fun coerce$35$$35$12 ((_ BitVec 32)) Int)
(declare-fun coerce$35$$35$8 (Str) Int)
(declare-fun coerce$35$$35$0 (Int) Int)
(declare-fun coerce$35$$35$6 (Bool) Str)
(declare-fun coerce$35$$35$7 (Bool) (_ BitVec 32))
(declare-fun coerce$35$$35$2 (Int) Str)
(declare-fun coerce$35$$35$5 (Bool) Bool)
(declare-fun smt_lambda$35$$35$13 ((_ BitVec 32) Bool) Int)
(declare-fun smt_lambda$35$$35$1 (Int Bool) Int)
(declare-fun smt_lambda$35$$35$3 (Int (_ BitVec 32)) Int)
(declare-fun smt_lambda$35$$35$15 ((_ BitVec 32) (_ BitVec 32)) Int)
(declare-fun smt_lambda$35$$35$14 ((_ BitVec 32) Str) Int)
(declare-fun smt_lambda$35$$35$9 (Str Bool) Int)
(declare-fun smt_lambda$35$$35$4 (Bool Int) Int)
(declare-fun smt_lambda$35$$35$10 (Str Str) Int)
(declare-fun smt_lambda$35$$35$11 (Str (_ BitVec 32)) Int)
(declare-fun smt_lambda$35$$35$12 ((_ BitVec 32) Int) Int)
(declare-fun smt_lambda$35$$35$8 (Str Int) Int)
(declare-fun smt_lambda$35$$35$0 (Int Int) Int)
(declare-fun smt_lambda$35$$35$6 (Bool Str) Int)
(declare-fun smt_lambda$35$$35$7 (Bool (_ BitVec 32)) Int)
(declare-fun smt_lambda$35$$35$2 (Int Str) Int)
(declare-fun smt_lambda$35$$35$5 (Bool Bool) Int)
(declare-fun lam_arg$35$$35$1$35$$35$4 () Bool)
(declare-fun lam_arg$35$$35$2$35$$35$4 () Bool)
(declare-fun lam_arg$35$$35$3$35$$35$4 () Bool)
(declare-fun lam_arg$35$$35$4$35$$35$4 () Bool)
(declare-fun lam_arg$35$$35$5$35$$35$4 () Bool)
(declare-fun lam_arg$35$$35$6$35$$35$4 () Bool)
(declare-fun lam_arg$35$$35$7$35$$35$4 () Bool)
(declare-fun lam_arg$35$$35$1$35$$35$12 () (_ BitVec 32))
(declare-fun lam_arg$35$$35$2$35$$35$12 () (_ BitVec 32))
(declare-fun lam_arg$35$$35$3$35$$35$12 () (_ BitVec 32))
(declare-fun lam_arg$35$$35$4$35$$35$12 () (_ BitVec 32))
(declare-fun lam_arg$35$$35$5$35$$35$12 () (_ BitVec 32))
(declare-fun lam_arg$35$$35$6$35$$35$12 () (_ BitVec 32))
(declare-fun lam_arg$35$$35$7$35$$35$12 () (_ BitVec 32))
(declare-fun lam_arg$35$$35$1$35$$35$8 () Str)
(declare-fun lam_arg$35$$35$2$35$$35$8 () Str)
(declare-fun lam_arg$35$$35$3$35$$35$8 () Str)
(declare-fun lam_arg$35$$35$4$35$$35$8 () Str)
(declare-fun lam_arg$35$$35$5$35$$35$8 () Str)
(declare-fun lam_arg$35$$35$6$35$$35$8 () Str)
(declare-fun lam_arg$35$$35$7$35$$35$8 () Str)
(declare-fun lam_arg$35$$35$1$35$$35$0 () Int)
(declare-fun lam_arg$35$$35$2$35$$35$0 () Int)
(declare-fun lam_arg$35$$35$3$35$$35$0 () Int)
(declare-fun lam_arg$35$$35$4$35$$35$0 () Int)
(declare-fun lam_arg$35$$35$5$35$$35$0 () Int)
(declare-fun lam_arg$35$$35$6$35$$35$0 () Int)
(declare-fun lam_arg$35$$35$7$35$$35$0 () Int)

(assert (distinct GHC.Types.False GHC.Types.True))

(assert (distinct lit$36$InterfaceAdapters.Weather.WWIWebPirate lit$36$MaximumCity$45$0.9.9$45$IUoVqdUkwWmEGL6yhjWbHS lit$36$src$47$InterfaceAdapters$47$Weather$47$WWIWebPirate.hs$58$44$58$30$45$84$124$lambda))
(assert (distinct GHC.Types.Int32Rep GHC.Types.Int16Rep GHC.Types.LiftedRep GHC.Types.FloatRep GHC.Types.AddrRep GHC.Types.Int64Rep GHC.Types.WordRep GHC.Types.Int8Rep GHC.Types.DoubleRep GHC.Types.IntRep GHC.Types.UnliftedRep GHC.Types.Word64Rep GHC.Types.Word16Rep GHC.Types.Word8Rep GHC.Types.Word32Rep))

(assert (distinct GHC.Types.GT GHC.Types.EQ GHC.Types.LT))

(assert (= (strLen lit$36$src$47$InterfaceAdapters$47$Weather$47$WWIWebPirate.hs$58$44$58$30$45$84$124$lambda) 61))
(assert (= (strLen lit$36$MaximumCity$45$0.9.9$45$IUoVqdUkwWmEGL6yhjWbHS) 40))
(assert (= (strLen lit$36$InterfaceAdapters.Weather.WWIWebPirate) 38))
(push 1)
(push 1)
(pop 1)
(pop 1)
(exit)
